p cnf 64 128
c node "figure7b-0-0-0" must have at least one color
1 2 3 4 0
c node "figure7b-0-0-1" must have at least one color
5 6 7 8 0
c node "figure7b-0-0-2" must have at least one color
9 10 11 12 0
c node "figure7b-0-0-3" must have at least one color
13 14 15 16 0
c node "figure7b-0-1-1" must have at least one color
17 18 19 20 0
c node "figure7b-0-1-2" must have at least one color
21 22 23 24 0
c node "figure7b-0-1-3" must have at least one color
25 26 27 28 0
c node "figure7b-1-0-1" must have at least one color
29 30 31 32 0
c node "figure7b-1-0-2" must have at least one color
33 34 35 36 0
c node "figure7b-1-0-3" must have at least one color
37 38 39 40 0
c node "figure7b-1-1-1" must have at least one color
41 42 43 44 0
c node "figure7b-1-1-2" must have at least one color
45 46 47 48 0
c node "figure7b-1-1-3" must have at least one color
49 50 51 52 0
c node "figure7b-2-1-1" must have at least one color
53 54 55 56 0
c node "figure7b-2-1-2" must have at least one color
57 58 59 60 0
c node "figure7b-2-1-3" must have at least one color
61 62 63 64 0
c nodes "figure7b-0-0-0" and "figure7b-0-0-1" may not have the same color
-1 -5 0
-2 -6 0
-3 -7 0
-4 -8 0
c nodes "figure7b-0-0-0" and "figure7b-0-0-2" may not have the same color
-1 -9 0
-2 -10 0
-3 -11 0
-4 -12 0
c nodes "figure7b-0-0-0" and "figure7b-0-1-1" may not have the same color
-1 -17 0
-2 -18 0
-3 -19 0
-4 -20 0
c nodes "figure7b-0-0-0" and "figure7b-0-1-2" may not have the same color
-1 -21 0
-2 -22 0
-3 -23 0
-4 -24 0
c nodes "figure7b-0-0-0" and "figure7b-1-0-1" may not have the same color
-1 -29 0
-2 -30 0
-3 -31 0
-4 -32 0
c nodes "figure7b-0-0-0" and "figure7b-1-0-2" may not have the same color
-1 -33 0
-2 -34 0
-3 -35 0
-4 -36 0
c nodes "figure7b-0-0-0" and "figure7b-1-1-1" may not have the same color
-1 -41 0
-2 -42 0
-3 -43 0
-4 -44 0
c nodes "figure7b-0-0-0" and "figure7b-1-1-2" may not have the same color
-1 -45 0
-2 -46 0
-3 -47 0
-4 -48 0
c nodes "figure7b-0-0-0" and "figure7b-2-1-1" may not have the same color
-1 -53 0
-2 -54 0
-3 -55 0
-4 -56 0
c nodes "figure7b-0-0-0" and "figure7b-2-1-2" may not have the same color
-1 -57 0
-2 -58 0
-3 -59 0
-4 -60 0
c nodes "figure7b-0-0-1" and "figure7b-0-0-2" may not have the same color
-5 -9 0
-6 -10 0
-7 -11 0
-8 -12 0
c nodes "figure7b-0-0-1" and "figure7b-0-0-3" may not have the same color
-5 -13 0
-6 -14 0
-7 -15 0
-8 -16 0
c nodes "figure7b-0-0-2" and "figure7b-0-0-3" may not have the same color
-9 -13 0
-10 -14 0
-11 -15 0
-12 -16 0
c nodes "figure7b-0-0-3" and "figure7b-0-1-3" may not have the same color
-13 -25 0
-14 -26 0
-15 -27 0
-16 -28 0
c nodes "figure7b-0-1-1" and "figure7b-0-1-2" may not have the same color
-17 -21 0
-18 -22 0
-19 -23 0
-20 -24 0
c nodes "figure7b-0-1-1" and "figure7b-0-1-3" may not have the same color
-17 -25 0
-18 -26 0
-19 -27 0
-20 -28 0
c nodes "figure7b-0-1-2" and "figure7b-0-1-3" may not have the same color
-21 -25 0
-22 -26 0
-23 -27 0
-24 -28 0
c nodes "figure7b-1-0-1" and "figure7b-1-0-2" may not have the same color
-29 -33 0
-30 -34 0
-31 -35 0
-32 -36 0
c nodes "figure7b-1-0-1" and "figure7b-1-0-3" may not have the same color
-29 -37 0
-30 -38 0
-31 -39 0
-32 -40 0
c nodes "figure7b-1-0-2" and "figure7b-1-0-3" may not have the same color
-33 -37 0
-34 -38 0
-35 -39 0
-36 -40 0
c nodes "figure7b-1-0-3" and "figure7b-1-1-3" may not have the same color
-37 -49 0
-38 -50 0
-39 -51 0
-40 -52 0
c nodes "figure7b-1-1-1" and "figure7b-1-1-2" may not have the same color
-41 -45 0
-42 -46 0
-43 -47 0
-44 -48 0
c nodes "figure7b-1-1-1" and "figure7b-1-1-3" may not have the same color
-41 -49 0
-42 -50 0
-43 -51 0
-44 -52 0
c nodes "figure7b-1-1-2" and "figure7b-1-1-3" may not have the same color
-45 -49 0
-46 -50 0
-47 -51 0
-48 -52 0
c nodes "figure7b-1-1-3" and "figure7b-2-1-3" may not have the same color
-49 -61 0
-50 -62 0
-51 -63 0
-52 -64 0
c nodes "figure7b-2-1-1" and "figure7b-2-1-2" may not have the same color
-53 -57 0
-54 -58 0
-55 -59 0
-56 -60 0
c nodes "figure7b-2-1-1" and "figure7b-2-1-3" may not have the same color
-53 -61 0
-54 -62 0
-55 -63 0
-56 -64 0
c nodes "figure7b-2-1-2" and "figure7b-2-1-3" may not have the same color
-57 -61 0
-58 -62 0
-59 -63 0
-60 -64 0